letting n_nurses=25
letting n_days=7
letting n_shift_types=4
letting max_covers=10
letting t_covers=35
letting covers=[0,0,0,0,1,2,6,0,1,0,0,0,0,0,0,0,2,10,3,0,0,0,0,0,7,1,2,0]
letting prefes=[4,1,2,4,4,1,1,3,4,1,2,4,1,4,1,1,1,4,1,1,1,4,1,1,4,1,1,3,1,1,2,4,1,1,1,4,1,1,2,4,4,4,1,1,4,1,2,1,4,4,1,1,1,1,1,4,4,1,2,3,4,1,1,4,4,1,2,3,4,4,1,3,4,4,1,1,4,4,1,3,4,1,1,4,4,1,1,4,4,1,3,3,4,1,1,4,1,4,1,1,1,4,1,3,1,4,1,1,4,1,3,3,4,4,1,4,4,1,1,4,4,4,1,4,4,4,1,1,1,4,2,1,4,4,1,1,4,1,1,4,4,1,1,4,4,1,1,4,4,1,1,4,4,1,1,3,4,4,2,1,4,1,1,3,4,1,1,4,4,1,1,4,4,1,1,4,4,1,1,4,4,4,1,3,4,4,1,3,4,4,1,3,4,1,1,4,4,1,1,4,4,1,3,3,4,1,1,4,4,1,1,3,4,4,1,1,4,1,1,3,4,1,3,3,4,1,1,4,4,2,1,4,4,1,1,4,4,4,2,1,4,4,1,3,4,4,2,1,4,2,1,4,4,1,2,4,4,1,1,3,4,1,2,4,4,4,1,1,4,4,2,1,4,4,1,1,4,1,1,3,4,4,1,4,4,1,3,4,4,4,1,4,1,4,2,1,1,4,1,1,1,4,2,1,4,1,3,4,4,1,1,4,4,1,1,4,4,1,1,4,4,4,1,1,4,4,1,1,4,4,1,1,4,1,1,4,4,1,2,4,4,1,1,4,4,1,2,4,4,4,1,1,4,4,1,1,4,4,1,1,4,1,1,4,4,1,1,3,4,2,1,4,4,1,1,3,4,4,1,1,4,4,1,1,4,4,1,1,4,2,1,4,4,4,1,3,4,1,1,4,4,4,1,3,4,1,1,3,4,4,1,3,4,1,1,3,4,1,1,4,4,1,1,4,4,1,1,4,4,1,1,4,1,4,1,1,4,4,1,1,1,4,1,1,4,1,1,4,1,1,1,4,1,1,1,3,1,1,1,4,4,4,1,1,4,1,1,1,4,4,1,1,1,1,1,3,1,4,1,4,1,2,1,4,1,4,1,4,4,4,2,1,4,1,1,1,4,4,2,1,1,2,1,4,4,1,1,4,4,2,1,4,4,1,1,4,4,4,1,1,4,4,2,1,4,4,1,1,4,2,1,4,1,1,1,4,1,1,3,4,1,1,1,4,4,4,1,1,4,1,1,1,4,4,1,1,1,1,3,4,1,1,1,4,1,1,1,4,1,1,1,4,4,1,1,1,4,1,1,1,4,1,1,1,1,1,1,4,4,1,1,4,4,1,3,4,4,1,1,4,4,4,1,1,4,4,1,1,4,4,1,1,4,1,3,4,4,1,1,3,4,1,1,4,4,1,1,3,1,4,2,1,4,4,1,1,1,4,2,1,4,1,1,4,4,1,1,4,4,2,1,4,4,1,1,4,4,1,1,1,1,4,1,1,4,1,1,1,4,2,1,4,4,4,1,3,4,1,1,4,4,4,1,3,4,4,2,1,4,4,1,3,4,4,2,1,4,1,1,4]
letting ub =  210
